r = [
0,27,19,24,18,10,21,1,26,1,13,1,15,6,20,7,28,9,13,17,34,35,9,13,16,14,0
];
p = [
0,23,13,14,9,13,17,19,28,15,5,12,9,14,2,7,2,24,1,11,13,27,12,29,20,12,0
];
e = [
0,20,4,14,19,6,12,9,15,20,8,11,4,14,11,7,12,8,5,6,16,11,1,19,9,9,0
];
d = [
0,345,323,343,343,312,322,301,348,307,332,322,344,333,338,308,329,316,334,327,332,345,331,332,335,321,351
];
d_bar = [
0,347,324,344,344,313,324,303,351,309,333,323,345,334,339,309,330,318,335,328,333,348,332,335,337,322,351
];
w = [
0,10,4,14,19,6,6,4.5,5,10,8,11,4,14,11,7,12,4,5,6,16,3.666666667,1,6.333333333,4.5,9,0
];
